PGAA - conf. 8 cm de chumbo e 7 cm de (95% Polietileno (C2H4) + 5% boro)
1   4   -2.6989   39 -40       -334  imp:n,p=1 $ Al do Nucleo
c
c BH
2   4   -2.6989   42 -43       -316  imp:n,p=1 $ tampa
3   4   -2.6989   43 -63   315 -316  imp:n,p=1 $ tubo
c
4   4   -2.6989   63  -75  314 -317  imp:n,p=1 $ seccao do tubo externa anterior
5   4   -2.6989  75  -78  314 -317  imp:n,p=1 $ seccao do tubo externa posterior
c
c
c Liner
6   4   -2.6989   44  -45      -310  imp:n,p=1 $ tampa
7   4   -2.6989   45  -65  308 -310  imp:n,p=1 $ tubo
8   4   -2.6989   65  -66  308 -313  imp:n,p=1 $ tubo
c
9   4   -2.6989   66 -75  312 -313  imp:n,p=1 $ tubo
10  4  -2.6989   (75 -78  312 -313) imp:n,p=1 $ tubo 
c
c
c Agua da Piscina
11  3  -1.0 39 (334:40) (-42:316) (317:-63) -72 -355 imp:n,p=1 
c
c
c Agua do BH
12  3  -1.0 43     (-44:310) -63 -315 imp:n,p=1 $ secao anterior
13  3  -1.0 63 310 (-65:313) -75 -314 imp:n,p=1 $ secao media
14  3  -1.0 75 -78 313 -314           imp:n,p=1 $ secao posterior
c
c
c Ar do Liner
15  5  -1.2250E-3 45  -312 (66:-308) -75
                       (75:-66:79) 516 517       imp:n,p=1 $ ate cartola
c
16  5  -1.2250E-3 75 -78 -312 311 imp:n,p=1 $ apos cartola (sup 75)
c
c
c
c Chapa de Aco
17  6    -7.93 72 -73 317 -355  imp:n,p=1 
c
c
c Concreto Barita
18   8   -3.5  73 -75 317 -350 imp:n,p=1 
19   8   -3.5  75 -78 317 -350 imp:n,p=1 
20   8   -3.5  73 -78 350 -355 imp:n,p=1
c
c Cartola
21  4   -2.6989   75  -76       -311  imp:n,p=1 $ tampa
22  4   -2.6989   76  -78  309  -311  imp:n,p=1 $ tubo
c
c
c Ar da Cartola
23  5  -1.2250E-3  76  -78       -309                          imp:n,p=1   
c
c
c
c Universo Externo
24  0           -39:355:101                                    imp:n,p=0 
25  9  -9.747    -75 66 -79                                    imp:n,p=1
c modelagem do imageamento 
26   4   -2.6989          -313 312   78 -100                   imp:n,p=4
27   4   -2.6989          -401 400 -1020  102                  imp:n,p=4
270  4   -2.6989          -401 400 -1021  1020                 imp:n,p=4
271  4   -2.6989          -401 400 -1022  1021                 imp:n,p=4
272  4   -2.6989          -401 400 -100  1022                  imp:n,p=4
28   11   -1.031          -402 401 -1020  102                  imp:n,p=4 
280  11   -1.031          -402 401 -1021  1020                 imp:n,p=4
281  11   -1.031          -402 401 -1022  1021                 imp:n,p=4  
282  11   -1.031          -402 401 -100  1022                  imp:n,p=4 
29    4   -2.6989         -403 402 -1020  102                  imp:n,p=4
290   4   -2.6989         -403 402 -1021  1020                 imp:n,p=4  
291   4   -2.6989         -403 402 -1022  1021                 imp:n,p=4 
292   4   -2.6989         -403 402 -100  1022                  imp:n,p=4 
30    8   -3.5             78  -100 407 -355                   imp:n,p=1
c ======================================================================
c
c                             Diafragmas
c
c ======================================================================
31   14     -0.915       -412 409 -103 100                      imp:n,p=4
32   12     -8.65           -413 412 -103 100                      imp:n,p=4
33   14     -0.915       -414 413 -103 100                      imp:n,p=4
34   13     -11.35          -415 414 -103 100                      imp:n,p=4
35   14     -0.915       -416 415 -103 100                      imp:n,p=4
36   12     -8.65           -417 416 -103 100                      imp:n,p=4
37   14     -0.915       -418 417 -103 100                      imp:n,p=4
38   13     -11.35          -419 418 -103 100                      imp:n,p=4
39   14     -0.915       -420 419 -103 100                      imp:n,p=4
40   12     -8.65           -421 420 -103 100                      imp:n,p=3
41   14     -0.915       -422 421 -103 100                      imp:n,p=3
42   13     -11.35          -423 422 -103 100                      imp:n,p=3
43   14     -0.915       -424 423 -103 100                      imp:n,p=3
44   12     -8.65           -425 424 -103 100                      imp:n,p=3
45   14     -0.915       -426 425 -103 100                      imp:n,p=3
c
c
c
46   14     -0.915       -412 410 -104 103                      imp:n,p=4
47   12     -8.65           -413 412 -104 103                      imp:n,p=4
48   14     -0.915       -414 413 -104 103                      imp:n,p=4
49   13     -11.35          -415 414 -104 103                      imp:n,p=4
50   14     -0.915       -416 415 -104 103                      imp:n,p=4
51   12     -8.65           -417 416 -104 103                      imp:n,p=4
52   14     -0.915       -418 417 -104 103                      imp:n,p=4
53   13     -11.35          -419 418 -104 103                      imp:n,p=4
54   14     -0.915       -420 419 -104 103                      imp:n,p=4
55   12     -8.65           -421 420 -104 103                      imp:n,p=3
56   14     -0.915       -422 421 -104 103                      imp:n,p=3
57   13     -11.35          -423 422 -104 103                      imp:n,p=3
58   14     -0.915       -424 423 -104 103                      imp:n,p=3
59   12     -8.65           -425 424 -104 103                      imp:n,p=3
60   14     -0.915       -426 425 -104 103                      imp:n,p=3
c
c
c
61   14     -0.915       -412 411 -105 104                     imp:n,p=4
62   12     -8.65           -413 412 -105 104                     imp:n,p=4
63   14     -0.915       -414 413 -105 104                     imp:n,p=4
64   13     -11.35          -415 414 -105 104                     imp:n,p=4
65   14     -0.915       -416 415 -105 104                     imp:n,p=4
66   12     -8.65           -417 416 -105 104                     imp:n,p=4
67   14     -0.915       -418 417 -105 104                     imp:n,p=4
68   13     -11.35          -419 418 -105 104                     imp:n,p=4
69   14     -0.915       -420 419 -105 104                     imp:n,p=4
70   12     -8.65           -421 420 -105 104                     imp:n,p=3
71   14     -0.915       -422 421 -105 104                     imp:n,p=3
72   13     -11.35          -423 422 -105 104                     imp:n,p=3
73   14     -0.915       -424 423 -105 104                     imp:n,p=3
74   12     -8.65           -425 424 -105 104                     imp:n,p=3
75   14     -0.915       -426 425 -105 104                     imp:n,p=3
c ======================================================================
c
c                         Blindagem principal 
c                   amostra  Posiçao de irradiaçao
c
c ======================================================================
76    14   -0.915        100 (426:-100) -105 23 -24 25 -26     imp:n,p=1
77    14   -0.915        105         -1050 23 -24 25 -19       imp:n,p=3 
78    14   -0.915        105         -1050 23 -24 20 -26       imp:n,p=3 
79    14   -0.915        105         -1050 23 -21 19 -20       imp:n,p=3
80    14   -0.915        105         -1050 22 -24 19 -20       imp:n,p=3
c
c amostra
c
81     5  -1.2250E-3       -520                                   imp:n,p=5
810    5  -1.2250E-3       -519                                   imp:n,p=5
811    5  -1.2250E-3       -518                                   imp:n,p=5 
812    5  -1.2250E-3       -517                                   imp:n,p=5 
813    5  -1.2250E-3       -516                                   imp:n,p=5 
c
c posição de irradiação
c 
82     14   -0.915                  (-110 1050 33 (515:-33) -29 35 -36) 
                              (515:33:29)                          imp:n,p=3   
83     14   -0.915                   -110 1050 30 -34 35 -36    imp:n,p=3
84     14   -0.915                   -110 109 29 -30 35 -36     imp:n,p=3  
85     14   -0.915                  -109 1050 29 -30 -31 35    imp:n,p=3  
86     14   -0.915                   -109 1050 29 -30 32 -36    imp:n,p=3 
c ======================================================================
c
c                            Ar no Ambiente 
c
c ====================================================================== 
c ======================================================================                      
92    5  -1.2250E-3              -312  78 -102                 imp:n,p=4
93    5  -1.2250E-3              -1020  102 -400  518          imp:n,p=4
930   5  -1.2250E-3              -1021  1020 -400              imp:n,p=4
931   5  -1.2250E-3              -1022  1021 -400              imp:n,p=4
932   5  -1.2250E-3              -100  1022 -400  519          imp:n,p=4
94    3  -1.0                    -1020  102 -312  403          imp:n,p=4
943   3  -1.0                    -1021  1020 -312  403         imp:n,p=4
944   3  -1.0                    -1022  1021 -312  403         imp:n,p=4
945   3  -1.0                    -100  1022 -312  403          imp:n,p=4
95    5  -1.2250E-3              -103  100 -409                imp:n,p=4
96    5  -1.2250E-3              -104  103 -410                imp:n,p=4
97    5  -1.2250E-3              -105  104 -411                imp:n,p=4
98    5  -1.2250E-3              -22  21 -20  19 -1050  105    imp:n,p=4
99    5  -1.2250E-3              -3552 1050 -110
                                 (110:-1050:-33:(-512 33):29:-35:36)                            
                                 (110:-1050:-30:34:-35:36)
                                 (110:-109:-29:30:-35:36)
                                 (109:-1050:-29:30:31:-35)
                                 (109:-1050:-29:30:-32:36)                                 
                                 (512:-510:505:-502) 
                                 (440:50:-51) (440:52:-53) 
                                 (-490:440:51:-52) 
                                 (-52:51:490) 
                                 (506:507:-505)                      
                                 (510:-511:505:-502)                     
                                 (512:504:-505)
                                 (515:-512:-502:504)  520      imp:n,p=4
999   0                         -355 3552 1050 -110            imp:n,p=0 
100   0                         -355  100 -1050 
                                (26:-25:24:-23)                imp:n,p=0
102   0                         -355  110 -101                 imp:n,p=0
c ======================================================================
c ==================== BLINDAGEM DO HPGe e HPGe ========================
C ======================================================================
 500   13   -11.35         (-512 -504 505)  
                           (506:507:-505) 
                           (506:504:-507)                      imp:n,p=5
 503   13   -11.35         (-512 510 -505  502)                imp:n,p=5
 504   17  -0.925         (-506 -504 505):
                           (-510 511 -505 502):
                           (-506 -504 507)                     imp:n,p=5
 506   16   -5.32          (52 (54:55) -51 -490)               imp:n,p=5 
 507   4    -2.6989        (490 -440 -51 52)                   imp:n,p=5
 508   4   -2.6989         (-440    -50 51)                    imp:n,p=5
 509   4   -2.6989         (-440    -52 53)                    imp:n,p=5  
 510   0                   (-54 -55 52)                        imp:n,p=5
 511   14  -0.915       (-515 512 502 -504)                 imp:n,p=5
C ========================================================                      
c ===============Ending of cell definition================                      
c ======================================================== 

c =======================================================                      
c ===========Beginning of surface definition==============                      
c ========================================================  
c   1   px   0.0
c
 19    py  -9
 20    py   9
 21    px  -7.35
 22    px   7.35
 23    px  -78.65
 24    px   61.35
 25    py  -55
 26    py   55 
 29    py  -37.38
 30    py   37.38
 31    px  -54.88
 32    px   54.88
 33    py  -45 
 34    py   45 
 35    px  -62.5
 36    px   62.5
 37    px  -2
 38    px   2
 380    py  -2 
 381    py   2
 39   pz  53.385    $ Alminio do Nucleo
 40   pz  53.735
 42   pz  56.275    $ BH
 43   pz  56.910
 44   pz  57.410    $ Liner
 45   pz  58.045
 63   pz 157.20     $ Alargamento da espessura do tubo BH
 65   pz 159.31     $ Alargamento do Liner
 66   pz 159.94     
 72   pz 167.305    $ Chapa de Aco que reveste a Piscina
 73   pz 167.647
 75   pz 184.79     $ Extremidade Anterior da Cartola
 76   pz 185.79
 78   pz 187.79     $ Extremidade Anterior do Tubo Porta-Amostra
 79   cz 6.5 
308   cz   5.6355    $ Liner:    Diam. Int. sec. Anterior 5.715 
309   cz   5.4775      $ Cartola:  Diam. Interno
310   cz   5.715      $ Liner:    Diam. Ext. sec. Anterior
311   cz   5.701      $ Cartola:  Diam. Externo
312   cz   6.826    $ Liner:    Diam. Int. sec. Posterior
313   cz   6.985    $ Liner:    Diam. Ext. sec.    "
c BH
314   cz  10.16     $ Diam. Int. sec. Posterior
315   cz  10.24     $   "    "   sec. Anterior
316   cz  10.954    $ Diam. Ext. sec. Anterior
317   cz  11.43     $   "    "   sec. Posterior
c
c
c Boca do BH
330   cz  20.95
c
334  cz  24.875    $ Diam. do Nucleo
350  cz  50        $ diametro de gravacao do ssw
355  cz  100.0      $ Diam. do Universo
3551 CZ  50.0
3552 CZ  80.0    
c
c superficies do imageamento 
c
100  pz  322.15    
101  pz  567.85
102  pz  190.79
1020 pz  223.63
1021 pz  262.47
1022 pz  301.31
103  pz  342.79
104  pz  362.79
105  pz  382.79
1050 pz  390.79
107  pz  432.79
108  pz  436.79
109  pz  506.79
110  pz  514.79
c 
400   cz   4.445            $ d=8.8900
401   cz   4.60475          $ d=9.2075
c  
402   cz   4.92125          $ d=9.8425        
403   cz   5.08             $ d=10.1600
404   cz   5.6355           $ d=11.271
405   cz   5.715            $ d=11.430
406   cz   6.826            $ d=13.6520
407   cz   6.985            $ d=13.9700
409   cz   5
410   cz   5.5
411   cz   6         $ paraf     
412   cz   6.470     $ cd      
413   cz   6.500     $ paraf            
414   cz   6.970     $ paraf     
415   cz   7.000     $ cd      
416   cz   7.470     $ paraf      
417   cz   7.500     $ pb      
418   cz   7.970     $ paraf       
419   cz   8.000     $ cd      
420   cz   8.470     $ paraf      
421   cz   8.500     $ pb      
422   cz   8.970     $ paraf      
423   cz   9.000     $ cd      
424   cz   9.470     $ paraf      
425   cz   9.500     $ pb      
426   cz   10.00     $ paraf 
C ++++++++++++++++++++++++++++++++++++++++++++++++++++++  
512 1 cy  15        
502 1 py -45       
503 1 ky   0 1 -1 
504 1 py  -3
505 1 py  -10       
506 1 ky  0 0.3 -1
507 1 py  -7.5 
508 1 cy  10
509 1 cy  1.5
510 1 cy  5.5
511 1 cy  3.5
513 1 cy  17
c envoltório do detector 
440 1   cy    3.231
c detector 
490  1  cy  3.15
50   1 py  -10
51   1 py  -10.011
52   1 py  -18.983
53   1 py  -19.293
c dedo frio 
54   1 cy   0.8
55   1 py  -15.808
56   1 py  -19.282  
514  1 CY   20 
C =======================================================
3910  py -138.5
3890  py  250.0
156   pz 333.255 
515 1 cy 18.5 
c ========================================================
516 sz   65  1
517 sz  105  1
518 sz  205  1 
519 sz  305  1
520 sz  435  5
c ========================================================                      
c ===========Ending of surface definition=================                      
c ========================================================   
c

mode n p
TR1  0  -19 434.79
c
c
SSR OLD 102
c
c
c   Descricao dos Materiais dados a partir do Relatorio  R410440046413_01_00
c   Titulo:  Avaliar Taxas de Dose e Blindagens Proximas ao BH-8
c   Autora:  Graciete
c   Data:    30/Agosto/1989
c
c   Fe, Ni e Cr foram explicitados em termos de seus isotopos, a saber:
c   54Fe(5,8%),   56Fe(91,7%),  57Fe(2,2%) e  58Fe(0,3%)
c   58Ni(68,27%), 60Ni(26,10%), 61Ni(1,13%),  62Ni(3,59%) e 64Ni(0,91%)
c   50Cr(4,35%),  52Cr(83,79%), 53Cr(9,50%) e 54Cr(2,36%)
c
c   enquanto o Ba e especificado por sua composicao natural ao inves do 
c   utilizado no relatorio 
c
c  junho/2019
c  troca das secoes de choque .60c para .80c
c  abundancias isotopicas do 24Mg(78,99%), 25Mg(10%) e 26Mg (11.01%)
c  28Si(92,223%), 29Si(4,685%) e 30Si(3,092%)
c  32S(94,99%), 33S(0,75%), 34S(4,25%) e 36S(0,01%)
c  obtidas do site https://www.nndc.bnl.gov/nudat2/reZoom.jsp?newZoom=2
c -------------------------------------------------------
c
c ++++++++++++++++++++++++++++++++++++++++++++++++++++++++
c +++++++++++++++++++++++ Agua +++++++++++++++++++++++++++
c ++++++++++++++++++++++++++++++++++++++++++++++++++++++++
m3   1001.70c  2  8016.70c 1
mt3  lwtr.01t
c ++++++++++++++++++++++++++++++++++++++++++++++++++++++++
c +++++++++++++++++++++++ Aluminio +++++++++++++++++++++++
c ++++++++++++++++++++++++++++++++++++++++++++++++++++++++
m4   13027.70c 1
c ++++++++++++++++++++++++++++++++++++++++++++++++++++++++
c +++++++++++++++++++++++ Ar +++++++++++++++++++++++++++++
c +++ (com as secoes de choque disponiveis - BENCHMARK) ++
c ++++++++++++++++++++++++++++++++++++++++++++++++++++++++
m5    7014.70c  -3.3803E-5   8016.70c  -8.9860E-6
c ++++++++++++++++++++++++++++++++++++++++++++++++++++++++
c ++++ aco piscina do Reator IEA-R1m (Rel.410440046) +++++
c ++++++++  abundancia isotopicas do Mg, Si e S  +++++++++
c ++++++++       obtidas do NUDAT jun/2019       +++++++++
c ++++++++++++++++++++++++++++++++++++++++++++++++++++++++
m6    6000.70c 3.2000E-4  
c   $ Mg: 12000.60c 1.7080E-3  
     12024.70c 1.3491E-3  12025.70c 1.7080E-4  
     12026.70c 1.8805E-4
     24050.70c 8.0279E-4  24052.70c 1.5463E-2  
     24053.70c 1.7532E-3
     24054.70c 4.3554E-4
     25055.70c 1.7470E-3
     26054.70c 3.3059E-3  26056.70c 5.2268E-2  
     26057.70c 1.2540E-3
     26058.70c 1.7100E-4  28058.70c 5.8602E-3 
     28060.70c 2.2404E-3  
     28061.70c 9.6997E-5  28062.70c 3.0816E-4  
     28064.70c 7.8113E-5  
c ++++++++++++++++++++++++++++++++++++++++++++++++++++++++
c ++++++++++++++++++ Concreto Barita +++++++++++++++++++++
c +++++++ (Explicitar as composicao isotopica do Ba) +++++
c ++++++++++++++++++++++++++++++++++++++++++++++++++++++++
m8    1001.70c 1.827E-2    8016.70c 4.726E-2   
      11023.70c 1.037E-4 
c  $  Mg: 12000.60c 1.962E-4
      12024.70c 1.5498E-4 12025.70c 1.9620E-5
      12026.70c 2.1602E-5
      13027.70c 4.900E-4 
c  $  Si: 14000.60c 1.358E-3
      14028.70c 1.2524E-3 14029.70c 6.3622E-5
      14030.70c 4.1989E-5
c  $  S: 16000.60c 6.510E-3 
     16032.70c 6.1838E-3  16033.70c 4.8825E-5
     16034.70c 2.7668E-4
     16036.70c 6.5100E-7
     25055.70c 3.9450e-6
     26054.70c 2.3183E-5  26056.70c 3.6652E-4
     26057.70c 8.7934E-6
     26058.70c 1.1991E-6    
     56138.70c 6.4095E-3
c ++++++++++++++++++++++++++++++++++++++++++++++++++++++++
c +++++++++++++++++++++++ Bismuto ++++++++++++++++++++++++
c ++++++++++++++++++++++++++++++++++++++++++++++++++++++++
m9   83209.66c  1.0
c ++++++++++++++++++++++++++++++++++++++++++++++++++++++++
c +++++++++++++++++ parafina borada ++++++++++++++++++++++
c ++++++++++++++++++++++++++++++++++++++++++++++++++++++++
m11   1001.70c  0.128634  6000.70c  0.62116        
     5010.70c  0.034971  8016.70c  0.15529
c ++++++++++++++++++++++++++++++++++++++++++++++++++++++++
c ++++++++++++++++++++ Cádmio ++++++++++++++++++++++++++++
c ++++++++++++++++++++++++++++++++++++++++++++++++++++++++  
m12   48106.70c  -1.0 
c ++++++++++++++++++++++++++++++++++++++++++++++++++++++++
c ++++++++++++++++++++ Chumbo ++++++++++++++++++++++++++++
c ++++++++++++++++++++++++++++++++++++++++++++++++++++++++  
m13   82204.70c  -1.0
c ++++++++++++++++++++++++++++++++++++++++++++++++++++++++
c +++++++++++++++ 95% Polietileno (C2H4) +++++++++++++++++
c ++++++++++++++++++++++ 5% Boro +++++++++++++++++++++++++
c ++++++++++++++++++++++++++++++++++++++++++++++++++++++++
m14   1001.70c         -0.137                                 
      6000.70c         -0.813
      5010.70c         -0.05 
c ++++++++++++++++++++++++++++++++++++++++++++++++++++++++
c +++++++++++++++ 70% Polietileno (C2H4) +++++++++++++++++
c +++++++++++++++++++++ 30% Boro +++++++++++++++++++++++++
c ++++++++++++++++++++++++++++++++++++++++++++++++++++++++
m15   1001.70c         -0.101                                 
      6000.70c         -0.599
      5010.70c         -0.30 
c ++++++++++++++++++++++++++++++++++++++++++++++++++++++++
c +++++++++++++++++++++++ Ge +++++++++++++++++++++++++++++
c ++++++++++++++++++++++++++++++++++++++++++++++++++++++++
m16  32070.70c -1.0
c ++++++++++++++++++++++++++++++++++++++++++++++++++++++++
c +++++++++++++++++ Polietileno (C2H4) +++++++++++++++++++
c ++++++++++++++++++++++++++++++++++++++++++++++++++++++++
m17   1001.70c         -0.143724                                 
      6000.70c         -0.856276  
c
c
c
c 
c
c ptrac file=asc write=all event=sur type=n filter=75,jsu max=100000000
c 
nps 1e12                        
c ctme  10000
c rand hist 1e9
c
c =====================================================================
c                         Fluxo Fmseh 
c =====================================================================
c
fmesh104:n
     geom = xyz
     origin -55 -55 190
     imesh 55
     iints 110
     jmesh 55
     jints 110
     kmesh 514
     kints 324 
c
c fmesh204:p
c      geom = xyz
c      origin -80 -80 382
c      imesh 80
c      iints 160
c      jmesh 80
c      jints 160
c      kmesh 514
c      kints 120 
c
c
c*****************************************************************************
c
c ============================================================================
c                          Espectro de energia cell 81 e 506
c ============================================================================
f302:n  518                                          
e302   1.0000E-11 3.0900E-10 3.9700E-10 5.1000E-10
      6.5400E-10 8.4000E-10 1.0800E-09
      1.3900E-09 1.7800E-09 2.2800E-09 2.9300E-09 
      3.7700E-09 4.8400E-09 6.2100E-09
      7.9700E-09 1.0200E-08 1.3100E-08 1.6900E-08
      2.1700E-08 2.7800E-08 3.5700E-08
      4.5900E-08 5.8900E-08 7.5600E-08 9.7100E-08
      1.2500E-07 1.6000E-07 2.0600E-07
      2.6400E-07 3.3900E-07 4.3500E-07 5.5900E-07
      7.1800E-07 9.2100E-07 1.1800E-06
      1.5200E-06 1.9500E-06 2.5100E-06 3.2200E-06
      4.1300E-06 5.3000E-06 6.8100E-06
      8.7400E-06 1.1200E-05 1.4400E-05 1.8500E-05 
      2.3800E-05 3.0500E-05 3.9200E-05
      5.0300E-05 6.4600E-05 8.2900E-05 1.0700E-04
      1.3700E-04 1.7600E-04 2.2500E-04
      2.9000E-04 3.7200E-04 4.7700E-04 6.1300E-04
      7.8700E-04 1.0100E-03 1.3000E-03
      1.6700E-03 2.1400E-03 2.7500E-03 3.5300E-03
      4.5300E-03 5.8100E-03 7.4700E-03
      9.5900E-03 1.2300E-02 1.5800E-02 2.0300E-02
      2.6100E-02 3.3500E-02 4.3000E-02
      5.5200E-02 7.0800E-02 9.1000E-02 1.1700E-01
      1.5000E-01 1.9300E-01 2.4700E-01
      3.1800E-01 4.0800E-01 5.2300E-01 6.7200E-01
      8.6300E-01 1.1100E+00 1.4200E+00
      1.8300E+00 2.3500E+00 3.0100E+00 3.8700E+00
      4.9700E+00 6.3800E+00 8.1900E+00
      1.0500E+01 1.3500E+01 1.7300E+01 2.0000E+01
c
f402:n  519                                          
e402   1.0000E-11 3.0900E-10 3.9700E-10 5.1000E-10
      6.5400E-10 8.4000E-10 1.0800E-09
      1.3900E-09 1.7800E-09 2.2800E-09 2.9300E-09 
      3.7700E-09 4.8400E-09 6.2100E-09
      7.9700E-09 1.0200E-08 1.3100E-08 1.6900E-08
      2.1700E-08 2.7800E-08 3.5700E-08
      4.5900E-08 5.8900E-08 7.5600E-08 9.7100E-08
      1.2500E-07 1.6000E-07 2.0600E-07
      2.6400E-07 3.3900E-07 4.3500E-07 5.5900E-07
      7.1800E-07 9.2100E-07 1.1800E-06
      1.5200E-06 1.9500E-06 2.5100E-06 3.2200E-06
      4.1300E-06 5.3000E-06 6.8100E-06
      8.7400E-06 1.1200E-05 1.4400E-05 1.8500E-05 
      2.3800E-05 3.0500E-05 3.9200E-05
      5.0300E-05 6.4600E-05 8.2900E-05 1.0700E-04
      1.3700E-04 1.7600E-04 2.2500E-04
      2.9000E-04 3.7200E-04 4.7700E-04 6.1300E-04
      7.8700E-04 1.0100E-03 1.3000E-03
      1.6700E-03 2.1400E-03 2.7500E-03 3.5300E-03
      4.5300E-03 5.8100E-03 7.4700E-03
      9.5900E-03 1.2300E-02 1.5800E-02 2.0300E-02
      2.6100E-02 3.3500E-02 4.3000E-02
      5.5200E-02 7.0800E-02 9.1000E-02 1.1700E-01
      1.5000E-01 1.9300E-01 2.4700E-01
      3.1800E-01 4.0800E-01 5.2300E-01 6.7200E-01
      8.6300E-01 1.1100E+00 1.4200E+00
      1.8300E+00 2.3500E+00 3.0100E+00 3.8700E+00
      4.9700E+00 6.3800E+00 8.1900E+00
      1.0500E+01 1.3500E+01 1.7300E+01 2.0000E+01
c
f502:n  520                                          
e502   1.0000E-11 3.0900E-10 3.9700E-10 5.1000E-10
      6.5400E-10 8.4000E-10 1.0800E-09
      1.3900E-09 1.7800E-09 2.2800E-09 2.9300E-09 
      3.7700E-09 4.8400E-09 6.2100E-09
      7.9700E-09 1.0200E-08 1.3100E-08 1.6900E-08
      2.1700E-08 2.7800E-08 3.5700E-08
      4.5900E-08 5.8900E-08 7.5600E-08 9.7100E-08
      1.2500E-07 1.6000E-07 2.0600E-07
      2.6400E-07 3.3900E-07 4.3500E-07 5.5900E-07
      7.1800E-07 9.2100E-07 1.1800E-06
      1.5200E-06 1.9500E-06 2.5100E-06 3.2200E-06
      4.1300E-06 5.3000E-06 6.8100E-06
      8.7400E-06 1.1200E-05 1.4400E-05 1.8500E-05 
      2.3800E-05 3.0500E-05 3.9200E-05
      5.0300E-05 6.4600E-05 8.2900E-05 1.0700E-04
      1.3700E-04 1.7600E-04 2.2500E-04
      2.9000E-04 3.7200E-04 4.7700E-04 6.1300E-04
      7.8700E-04 1.0100E-03 1.3000E-03
      1.6700E-03 2.1400E-03 2.7500E-03 3.5300E-03
      4.5300E-03 5.8100E-03 7.4700E-03
      9.5900E-03 1.2300E-02 1.5800E-02 2.0300E-02
      2.6100E-02 3.3500E-02 4.3000E-02
      5.5200E-02 7.0800E-02 9.1000E-02 1.1700E-01
      1.5000E-01 1.9300E-01 2.4700E-01
      3.1800E-01 4.0800E-01 5.2300E-01 6.7200E-01
      8.6300E-01 1.1100E+00 1.4200E+00
      1.8300E+00 2.3500E+00 3.0100E+00 3.8700E+00
      4.9700E+00 6.3800E+00 8.1900E+00
      1.0500E+01 1.3500E+01 1.7300E+01 2.0000E+01
c =======================================================
f304:n  811                                          
e304   1.0000E-11 3.0900E-10 3.9700E-10 5.1000E-10
      6.5400E-10 8.4000E-10 1.0800E-09
      1.3900E-09 1.7800E-09 2.2800E-09 2.9300E-09 
      3.7700E-09 4.8400E-09 6.2100E-09
      7.9700E-09 1.0200E-08 1.3100E-08 1.6900E-08
      2.1700E-08 2.7800E-08 3.5700E-08
      4.5900E-08 5.8900E-08 7.5600E-08 9.7100E-08
      1.2500E-07 1.6000E-07 2.0600E-07
      2.6400E-07 3.3900E-07 4.3500E-07 5.5900E-07
      7.1800E-07 9.2100E-07 1.1800E-06
      1.5200E-06 1.9500E-06 2.5100E-06 3.2200E-06
      4.1300E-06 5.3000E-06 6.8100E-06
      8.7400E-06 1.1200E-05 1.4400E-05 1.8500E-05 
      2.3800E-05 3.0500E-05 3.9200E-05
      5.0300E-05 6.4600E-05 8.2900E-05 1.0700E-04
      1.3700E-04 1.7600E-04 2.2500E-04
      2.9000E-04 3.7200E-04 4.7700E-04 6.1300E-04
      7.8700E-04 1.0100E-03 1.3000E-03
      1.6700E-03 2.1400E-03 2.7500E-03 3.5300E-03
      4.5300E-03 5.8100E-03 7.4700E-03
      9.5900E-03 1.2300E-02 1.5800E-02 2.0300E-02
      2.6100E-02 3.3500E-02 4.3000E-02
      5.5200E-02 7.0800E-02 9.1000E-02 1.1700E-01
      1.5000E-01 1.9300E-01 2.4700E-01
      3.1800E-01 4.0800E-01 5.2300E-01 6.7200E-01
      8.6300E-01 1.1100E+00 1.4200E+00
      1.8300E+00 2.3500E+00 3.0100E+00 3.8700E+00
      4.9700E+00 6.3800E+00 8.1900E+00
      1.0500E+01 1.3500E+01 1.7300E+01 2.0000E+01
c
f404:n  810                                         
e404   1.0000E-11 3.0900E-10 3.9700E-10 5.1000E-10
      6.5400E-10 8.4000E-10 1.0800E-09
      1.3900E-09 1.7800E-09 2.2800E-09 2.9300E-09 
      3.7700E-09 4.8400E-09 6.2100E-09
      7.9700E-09 1.0200E-08 1.3100E-08 1.6900E-08
      2.1700E-08 2.7800E-08 3.5700E-08
      4.5900E-08 5.8900E-08 7.5600E-08 9.7100E-08
      1.2500E-07 1.6000E-07 2.0600E-07
      2.6400E-07 3.3900E-07 4.3500E-07 5.5900E-07
      7.1800E-07 9.2100E-07 1.1800E-06
      1.5200E-06 1.9500E-06 2.5100E-06 3.2200E-06
      4.1300E-06 5.3000E-06 6.8100E-06
      8.7400E-06 1.1200E-05 1.4400E-05 1.8500E-05 
      2.3800E-05 3.0500E-05 3.9200E-05
      5.0300E-05 6.4600E-05 8.2900E-05 1.0700E-04
      1.3700E-04 1.7600E-04 2.2500E-04
      2.9000E-04 3.7200E-04 4.7700E-04 6.1300E-04
      7.8700E-04 1.0100E-03 1.3000E-03
      1.6700E-03 2.1400E-03 2.7500E-03 3.5300E-03
      4.5300E-03 5.8100E-03 7.4700E-03
      9.5900E-03 1.2300E-02 1.5800E-02 2.0300E-02
      2.6100E-02 3.3500E-02 4.3000E-02
      5.5200E-02 7.0800E-02 9.1000E-02 1.1700E-01
      1.5000E-01 1.9300E-01 2.4700E-01
      3.1800E-01 4.0800E-01 5.2300E-01 6.7200E-01
      8.6300E-01 1.1100E+00 1.4200E+00
      1.8300E+00 2.3500E+00 3.0100E+00 3.8700E+00
      4.9700E+00 6.3800E+00 8.1900E+00
      1.0500E+01 1.3500E+01 1.7300E+01 2.0000E+01
c
f504:n  81                                         
e504   1.0000E-11 3.0900E-10 3.9700E-10 5.1000E-10
      6.5400E-10 8.4000E-10 1.0800E-09
      1.3900E-09 1.7800E-09 2.2800E-09 2.9300E-09 
      3.7700E-09 4.8400E-09 6.2100E-09
      7.9700E-09 1.0200E-08 1.3100E-08 1.6900E-08
      2.1700E-08 2.7800E-08 3.5700E-08
      4.5900E-08 5.8900E-08 7.5600E-08 9.7100E-08
      1.2500E-07 1.6000E-07 2.0600E-07
      2.6400E-07 3.3900E-07 4.3500E-07 5.5900E-07
      7.1800E-07 9.2100E-07 1.1800E-06
      1.5200E-06 1.9500E-06 2.5100E-06 3.2200E-06
      4.1300E-06 5.3000E-06 6.8100E-06
      8.7400E-06 1.1200E-05 1.4400E-05 1.8500E-05 
      2.3800E-05 3.0500E-05 3.9200E-05
      5.0300E-05 6.4600E-05 8.2900E-05 1.0700E-04
      1.3700E-04 1.7600E-04 2.2500E-04
      2.9000E-04 3.7200E-04 4.7700E-04 6.1300E-04
      7.8700E-04 1.0100E-03 1.3000E-03
      1.6700E-03 2.1400E-03 2.7500E-03 3.5300E-03
      4.5300E-03 5.8100E-03 7.4700E-03
      9.5900E-03 1.2300E-02 1.5800E-02 2.0300E-02
      2.6100E-02 3.3500E-02 4.3000E-02
      5.5200E-02 7.0800E-02 9.1000E-02 1.1700E-01
      1.5000E-01 1.9300E-01 2.4700E-01
      3.1800E-01 4.0800E-01 5.2300E-01 6.7200E-01
      8.6300E-01 1.1100E+00 1.4200E+00
      1.8300E+00 2.3500E+00 3.0100E+00 3.8700E+00
      4.9700E+00 6.3800E+00 8.1900E+00
      1.0500E+01 1.3500E+01 1.7300E+01 2.0000E+01
c
c
prdmp j -180 j 3 j                         
print 30 110


